Nodes = {"Frankfurt", "Koeln", "Hamburg", "Hannover", "Karlsruhe", "Stuttgart", "Muenchen", "Nuernberg", "Berlin", "Leipzig"};
Arcs = {<"Frankfurt","Koeln",5,4,1>, <"Frankfurt","Hamburg",5,13,1>, <"Frankfurt","Hannover",5,6,1>, <"Frankfurt","Karlsruhe",5,1,1>, <"Frankfurt","Stuttgart",5,3,1>, <"Frankfurt","Muenchen",5,13,1>, <"Frankfurt","Nuernberg",5,8,1>, <"Frankfurt","Berlin",5,28,1>, <"Frankfurt","Leipzig",5,16,1>, <"Koeln","Frankfurt",5,4,1>, <"Koeln","Hamburg",5,20,1>, <"Koeln","Hannover",5,11,1>, <"Koeln","Karlsruhe",5,5,1>, <"Koeln","Stuttgart",5,11,1>, <"Koeln","Muenchen",5,29,1>, <"Koeln","Nuernberg",5,22,1>, <"Koeln","Berlin",5,47,1>, <"Koeln","Leipzig",5,32,1>, <"Hamburg","Frankfurt",5,13,1>, <"Hamburg","Koeln",5,20,1>, <"Hamburg","Hannover",5,2,1>, <"Hamburg","Karlsruhe",5,22,1>, <"Hamburg","Stuttgart",5,25,1>, <"Hamburg","Muenchen",5,29,1>, <"Hamburg","Nuernberg",5,18,1>, <"Hamburg","Berlin",5,11,1>, <"Hamburg","Leipzig",5,9,1>, <"Hannover","Frankfurt",5,6,1>, <"Hannover","Koeln",5,11,1>, <"Hannover","Hamburg",5,2,1>, <"Hannover","Karlsruhe",5,12,1>, <"Hannover","Stuttgart",5,14,1>, <"Hannover","Muenchen",5,21,1>, <"Hannover","Nuernberg",5,11,1>, <"Hannover","Berlin",5,14,1>, <"Hannover","Leipzig",5,9,1>, <"Karlsruhe","Frankfurt",5,1,1>, <"Karlsruhe","Koeln",5,5,1>, <"Karlsruhe","Hamburg",5,22,1>, <"Karlsruhe","Hannover",5,12,1>, <"Karlsruhe","Stuttgart",5,1,1>, <"Karlsruhe","Muenchen",5,10,1>, <"Karlsruhe","Nuernberg",5,8,1>, <"Karlsruhe","Berlin",5,35,1>, <"Karlsruhe","Leipzig",5,21,1>, <"Stuttgart","Frankfurt",5,3,1>, <"Stuttgart","Koeln",5,11,1>, <"Stuttgart","Hamburg",5,25,1>, <"Stuttgart","Hannover",5,14,1>, <"Stuttgart","Karlsruhe",5,1,1>, <"Stuttgart","Muenchen",5,5,1>, <"Stuttgart","Nuernberg",5,4,1>, <"Stuttgart","Berlin",5,31,1>, <"Stuttgart","Leipzig",5,17,1>, <"Muenchen","Frankfurt",5,13,1>, <"Muenchen","Koeln",5,29,1>, <"Muenchen","Hamburg",5,29,1>, <"Muenchen","Hannover",5,21,1>, <"Muenchen","Karlsruhe",5,10,1>, <"Muenchen","Stuttgart",5,5,1>, <"Muenchen","Nuernberg",5,2,1>, <"Muenchen","Berlin",5,21,1>, <"Muenchen","Leipzig",5,11,1>, <"Nuernberg","Frankfurt",5,8,1>, <"Nuernberg","Koeln",5,22,1>, <"Nuernberg","Hamburg",5,18,1>, <"Nuernberg","Hannover",5,11,1>, <"Nuernberg","Karlsruhe",5,8,1>, <"Nuernberg","Stuttgart",5,4,1>, <"Nuernberg","Muenchen",5,2,1>, <"Nuernberg","Berlin",5,14,1>, <"Nuernberg","Leipzig",5,5,1>, <"Berlin","Frankfurt",5,28,1>, <"Berlin","Koeln",5,47,1>, <"Berlin","Hamburg",5,11,1>, <"Berlin","Hannover",5,14,1>, <"Berlin","Karlsruhe",5,35,1>, <"Berlin","Stuttgart",5,31,1>, <"Berlin","Muenchen",5,21,1>, <"Berlin","Nuernberg",5,14,1>, <"Berlin","Leipzig",5,2,1>, <"Leipzig","Frankfurt",5,16,1>, <"Leipzig","Koeln",5,32,1>, <"Leipzig","Hamburg",5,9,1>, <"Leipzig","Hannover",5,9,1>, <"Leipzig","Karlsruhe",5,21,1>, <"Leipzig","Stuttgart",5,17,1>, <"Leipzig","Muenchen",5,11,1>, <"Leipzig","Nuernberg",5,5,1>, <"Leipzig","Berlin",5,2,1>};
Demands = {<"Frankfurt","Koeln",10>, <"Frankfurt","Hamburg",20>, <"Frankfurt","Hannover",30>, <"Frankfurt","Karlsruhe",40>, <"Frankfurt","Stuttgart",50>, <"Frankfurt","Muenchen",60>, <"Frankfurt","Nuernberg",70>, <"Frankfurt","Berlin",80>, <"Frankfurt","Leipzig",90>, <"Koeln","Frankfurt",10>, <"Koeln","Hamburg",10>, <"Koeln","Hannover",20>, <"Koeln","Karlsruhe",30>, <"Koeln","Stuttgart",40>, <"Koeln","Muenchen",50>, <"Koeln","Nuernberg",60>, <"Koeln","Berlin",70>, <"Koeln","Leipzig",80>, <"Hamburg","Frankfurt",20>, <"Hamburg","Koeln",10>, <"Hamburg","Hannover",10>, <"Hamburg","Karlsruhe",20>, <"Hamburg","Stuttgart",30>, <"Hamburg","Muenchen",40>, <"Hamburg","Nuernberg",50>, <"Hamburg","Berlin",60>, <"Hamburg","Leipzig",70>, <"Hannover","Frankfurt",30>, <"Hannover","Koeln",20>, <"Hannover","Hamburg",10>, <"Hannover","Karlsruhe",10>, <"Hannover","Stuttgart",20>, <"Hannover","Muenchen",30>, <"Hannover","Nuernberg",40>, <"Hannover","Berlin",50>, <"Hannover","Leipzig",60>, <"Karlsruhe","Frankfurt",40>, <"Karlsruhe","Koeln",30>, <"Karlsruhe","Hamburg",20>, <"Karlsruhe","Hannover",10>, <"Karlsruhe","Stuttgart",10>, <"Karlsruhe","Muenchen",20>, <"Karlsruhe","Nuernberg",30>, <"Karlsruhe","Berlin",40>, <"Karlsruhe","Leipzig",50>, <"Stuttgart","Frankfurt",50>, <"Stuttgart","Koeln",40>, <"Stuttgart","Hamburg",30>, <"Stuttgart","Hannover",20>, <"Stuttgart","Karlsruhe",10>, <"Stuttgart","Muenchen",10>, <"Stuttgart","Nuernberg",20>, <"Stuttgart","Berlin",30>, <"Stuttgart","Leipzig",40>, <"Muenchen","Frankfurt",60>, <"Muenchen","Koeln",50>, <"Muenchen","Hamburg",40>, <"Muenchen","Hannover",30>, <"Muenchen","Karlsruhe",20>, <"Muenchen","Stuttgart",10>, <"Muenchen","Nuernberg",10>, <"Muenchen","Berlin",20>, <"Muenchen","Leipzig",30>, <"Nuernberg","Frankfurt",70>, <"Nuernberg","Koeln",60>, <"Nuernberg","Hamburg",50>, <"Nuernberg","Hannover",40>, <"Nuernberg","Karlsruhe",30>, <"Nuernberg","Stuttgart",20>, <"Nuernberg","Muenchen",10>, <"Nuernberg","Berlin",10>, <"Nuernberg","Leipzig",20>, <"Berlin","Frankfurt",80>, <"Berlin","Koeln",70>, <"Berlin","Hamburg",60>, <"Berlin","Hannover",50>, <"Berlin","Karlsruhe",40>, <"Berlin","Stuttgart",30>, <"Berlin","Muenchen",20>, <"Berlin","Nuernberg",10>, <"Berlin","Leipzig",10>, <"Leipzig","Frankfurt",90>, <"Leipzig","Koeln",80>, <"Leipzig","Hamburg",70>, <"Leipzig","Hannover",60>, <"Leipzig","Karlsruhe",50>, <"Leipzig","Stuttgart",40>, <"Leipzig","Muenchen",30>, <"Leipzig","Nuernberg",20>, <"Leipzig","Berlin",10>};
